Cansu.lp
\ LP format - for model browsing. Use MPS format to capture full model detail.
Maximize
  10 Tatlı_E4 + 11 Mantı_E6 + 10 Kebap_E8 + 7 Antrikot_E1 + 5 Pilav_E5
   + 9 Künefe_E8 + 13 Künefe_E8 + 5 Pilav_E2 + 11 Tatlı_E6
   + 10 Mantı_E9 + 10 Mercimek_E2 + 10 Salata_E4 + 8 Salata_E3
   + 14 Lahmacun_E1 + 10 Antrikot_E3 + 14 Künefe_E0 + 5 Antrikot_E5
   + 6 Pizza_E6 + 9 Kebap_E4 + 11 Antrikot_E7
Subject To
 _Money_Constraint: 7 Tatlı_E4 + 8 Mantı_E6 + 14 Kebap_E8 + 9 Antrikot_E1
   + 13 Pilav_E5 + 9 Künefe_E8 + 6 Künefe_E8 + 10 Pilav_E2 + 7 Tatlı_E6
   + 13 Mantı_E9 + 13 Mercimek_E2 + 14 Salata_E4 + 14 Salata_E3
   + 14 Lahmacun_E1 + 7 Antrikot_E3 + 13 Künefe_E0 + 12 Antrikot_E5
   + 7 Pizza_E6 + 11 Kebap_E4 + 12 Antrikot_E7 <= 23563
 _Food_Capacity_Constraint: 5 Tatlı_E4 + 13 Mantı_E6 + 10 Kebap_E8
   + 9 Antrikot_E1 + 10 Pilav_E5 + 12 Künefe_E8 + 5 Künefe_E8
   + 6 Pilav_E2 + 5 Tatlı_E6 + 8 Mantı_E9 + 14 Mercimek_E2 + 5 Salata_E4
   + 12 Salata_E3 + 12 Lahmacun_E1 + 12 Antrikot_E3 + 14 Künefe_E0
   + 12 Antrikot_E5 + 10 Pizza_E6 + 14 Kebap_E4 + 12 Antrikot_E7 <= 33
Bounds
Binaries
 Tatlı_E4 Mantı_E6 Kebap_E8 Antrikot_E1 Pilav_E5 Künefe_E8 Künefe_E8
 Pilav_E2 Tatlı_E6 Mantı_E9 Mercimek_E2 Salata_E4 Salata_E3 Lahmacun_E1
 Antrikot_E3 Künefe_E0 Antrikot_E5 Pizza_E6 Kebap_E4 Antrikot_E7
End
